900.17 0
0 40 9 25 55 18 50 32 44 3 0
0 68 2 62 22 64 42 41 43 1 73 0
0 27 57 15 37 20 70 60 71 69 36 5 29 45 0
0 67 46 8 19 54 13 52 34 0
0 17 12 72 39 31 65 38 10 58 26 0
0 35 14 59 66 11 53 7 0
0 4 48 47 21 61 28 74 30 0
0 75 6 33 63 23 56 24 49 16 51 0
